NAME : portcgen-23-4
COMMENT : portcgen N=23, seed=4
TYPE : TSP
DIMENSION : 23
EDGE_WEIGHT_TYPE : EUC_2D
NODE_COORD_SECTION
1 51444 -314377
2 -97795 16092
3 170813 -473464
4 74156 -178356
5 -168021 -103463
6 -106915 -206900
7 5413 26812
8 159340 -203400
9 146189 -266497
10 95684 185775
11 322861 345764
12 5440 14570
13 -316449 -199477
14 -187883 -53378
15 169802 -95643
16 -180599 -118943
17 245244 -115820
18 -180400 -102285
19 -10753 -241104
20 -311170 182293
21 34322 49576
22 119595 211327
23 -81232 -364627
